
        $ From http://www.csplib.org/Problems/prob009/data/helmut.pdf
        $ Problem number 49
        $ Sequence length : 25
        language ESSENCE' 1.0
        letting sizemaster be 208
        letting sizes be sequence(1,2,3,4,5,7,8,11,12,17,18,24,26,28,29,30,36,39,44,45,50,59,60,89,119)
        